%mem=24GB
%nprocshared=6
# 6-31+g(d,p) pop=(full,nbo) m06

I-M2

-1 2
 C                 -2.93050300   -0.56537600   -0.16310400
 C                 -4.24200000   -0.98638500   -0.09355000
 C                 -5.23635600   -0.01843800    0.07723400
 C                 -4.90571900    1.32089000    0.16311500
 C                 -3.57152500    1.74340700    0.09542000
 C                 -2.54324600    0.78698100   -0.05172200
 H                 -4.47800600   -2.04392700   -0.17046900
 H                 -6.27890300   -0.31958200    0.13666600
 H                 -5.66592500    2.08726900    0.28722600
 C                 -1.12654500    1.14243700   -0.05647200
 C                 -0.12874900    0.23241500    0.17745400
 S                 -1.64879300   -1.76357800   -0.46994500
 O                 -1.21007100   -1.64575000   -1.84761600
 O                 -2.04997600   -3.04067700    0.09459200
 N                 -0.42123500   -1.12888000    0.50067500
 C                 -0.54436800   -1.41577000    1.94095100
 H                  0.38751800   -1.10507200    2.42323500
 H                 -1.38128000   -0.86715300    2.39746600
 H                 -0.68231300   -2.48873300    2.08567700
 O                 -0.85179600    2.42310900   -0.33030400
 H                  0.14460400    2.52723600   -0.27937700
 C                  1.27085600    0.63035100    0.06148400
 O                  1.60319900    1.81937200   -0.09358800
 N                  2.17471800   -0.38342300    0.14009900
 H                  1.80483400   -1.33004200    0.16906900
 C                  3.55376600   -0.25582300    0.06833300
 N                  4.26819200   -1.35713600    0.15667400
 C                  5.61880800    0.40222700   -0.08353700
 C                  4.35459200    0.90582100   -0.08447700
 C                  6.95733100    1.01762000   -0.20634100
 H                  7.56827800    0.80095300    0.67665100
 H                  7.48742800    0.62485000   -1.08075100
 H                  6.86520400    2.10119600   -0.31105200
 O                  5.58122100   -0.93378000    0.05789800
 H                  4.02985300    1.92947500   -0.18353100
 O                 -3.36123000    3.06286900    0.20258500
 H                 -2.42114700    3.26356500    0.04889400

