%mem=152GB
%nprocshared=38
# opt freq 6-31+g(d,p) m06

I-M3

0 1
 C                  1.19806868   -0.20174957   -0.11774434
 C                  0.82065418    1.08189959    0.02898799
 C                  1.78363402    2.07178570    0.27005764
 C                  3.07358261    1.71250364    0.48976340
 C                  3.42807258    0.35545878    0.47599151
 C                  2.45838010   -0.60564812    0.16388183
 H                  3.81546652    2.46023367    0.67793365
 H                  2.71342070   -1.64448498    0.13795354
 C                 -0.69229501    1.45062228   -0.04629037
 C                 -1.73001363    0.46565954    0.01881254
 C                 -3.19830979    0.92267698   -0.06390046
 O                 -1.05926499    2.82816494   -0.15858123
 H                 -1.96650783    2.94249300    0.13371918
 O                 -3.47068112    2.14444955   -0.19295938
 H                  1.50131374    3.10365148    0.29123015
 O                 -4.25221478   -0.04132760    0.00595248
 H                 -5.00613646    0.27160535   -0.49929505
 H                  4.43175147    0.05753634    0.69683287
 O                 -0.30463459   -1.03024332   -2.12417452
 O                  0.39359891   -2.70123612   -0.55812438
 S                 -0.03643328   -1.30369680   -0.70536678
 N                 -1.43501778   -0.97996171    0.17834560
 C                 -2.54418075   -1.79742001   -0.33392330
 H                 -3.43396302   -1.57748271    0.21817731
 H                 -2.70247573   -1.57560054   -1.36864009
 H                 -2.30345341   -2.83419744   -0.22418314

