%nprocshared=15
# opt freq m06/6-31+g(d,p)

Isoxicam

0 1
 C                  3.11936100    0.26534300   -0.15645800
 C                  4.47665200    0.57301300   -0.13904200
 C                  5.40255600   -0.46122100    0.01942700
 C                  4.96247700   -1.78227600    0.15300100
 C                  3.60002100   -2.08041300    0.14544200
 C                  2.65321200   -1.05457000    0.00067800
 H                  4.79666300    1.60406900   -0.24639200
 H                  6.46413900   -0.23508500    0.03460000
 H                  5.68511700   -2.58413300    0.26842700
 H                  3.25292400   -3.10161400    0.25396700
 C                  1.21065000   -1.34891900    0.01343800
 C                  0.26090600   -0.37413000    0.21769400
 S                  1.90424700    1.55220400   -0.45467400
 O                  1.46587400    1.47825700   -1.84700300
 O                  2.38452200    2.80973400    0.12298300
 N                  0.61956700    0.98605100    0.51302900
 C                  0.71226900    1.32052300    1.95623900
 H                 -0.25218800    1.08422200    2.41133300
 H                  1.49589000    0.74327400    2.46288200
 H                  0.90880900    2.38680100    2.06327900
 O                  0.88815800   -2.62269300   -0.21657900
 H                 -0.11370300   -2.67063300   -0.16625500
 C                 -1.16123200   -0.70933100    0.10153900
 O                 -1.54352300   -1.89576200   -0.01510300
 N                 -2.02640400    0.34642200    0.12635000
 H                 -1.61155700    1.27309400    0.12527600
 C                 -3.41412100    0.28395400    0.04320500
 N                 -4.07960100    1.42236700    0.08096900
 C                 -5.51838700   -0.29541900   -0.10786600
 C                 -4.27190200   -0.84931600   -0.07452600
 C                 -6.88891800   -0.86510000   -0.22306500
 H                 -7.49847200   -0.59201800    0.64481500
 H                 -7.39356200   -0.48631000   -1.11816100
 H                 -6.83686200   -1.95390200   -0.28553900
 O                 -5.42437100    1.05119600   -0.01731500
 H                 -3.98663400   -1.88558800   -0.12997000

