%mem=24GB
%nprocshared=6
# 6-31+g(d,p) pop=(full,nbo) m06

I-M3

1 2
 C                 -2.79957600   -0.29090100   -0.15484000
 C                 -4.13855400   -0.62601800   -0.12210500
 C                 -5.07673100    0.39610800    0.03944100
 C                 -4.65635800    1.72330200    0.15698000
 C                 -3.30510900    2.03478800    0.13238800
 C                 -2.34456400    1.03038700   -0.01220200
 H                 -4.46478700   -1.65826500   -0.22039100
 H                 -5.39473800    2.51520800    0.27487300
 H                 -2.97727500    3.06588000    0.23016700
 C                 -0.91648100    1.34200700   -0.01212500
 C                  0.04071000    0.37859800    0.18555900
 S                 -1.57877900   -1.55250500   -0.46628500
 O                 -1.15736000   -1.45539100   -1.85068400
 O                 -2.04003200   -2.80722400    0.10320100
 N                 -0.31728100   -0.97485900    0.49087100
 C                 -0.43108600   -1.27657900    1.92888900
 H                  0.52135300   -1.01310000    2.39873400
 H                 -1.23456400   -0.69622700    2.40612300
 H                 -0.61441100   -2.34394500    2.06430400
 O                 -0.62134300    2.61475800   -0.24088300
 H                  0.36945000    2.69470500   -0.19975400
 C                  1.45611900    0.71249800    0.07583800
 O                  1.84488800    1.88584300   -0.04626100
 N                  2.31409600   -0.34712700    0.12245800
 H                  1.90331300   -1.27668500    0.12514500
 C                  3.69624800   -0.27720900    0.05093300
 N                  4.36590600   -1.40881000    0.10284000
 C                  5.78671800    0.30166400   -0.08384100
 C                  4.54419700    0.85544500   -0.06655100
 C                  7.14873000    0.86714900   -0.18924100
 H                  7.75131200    0.59835700    0.68517400
 H                  7.66257000    0.48239600   -1.07686700
 H                  7.09927300    1.95637600   -0.25882000
 O                  5.69612800   -1.03572200    0.01495400
 H                  4.25872800    1.89353200   -0.13248700
 O                 -6.37735100    0.03527600    0.07041600
 H                 -6.94379500    0.80968500    0.17049900

