%mem=12GB
%nprocshared=8
# 6-31+g(d,p) pop=(full,nbo) m06

I-M1

0 1
 C                 -3.44040400   -0.25977400   -0.10898900
 C                 -4.78951500   -0.56833000   -0.03005800
 C                 -5.70560200    0.46448400    0.15193500
 C                 -5.26302100    1.78235300    0.24678100
 C                 -3.90697800    2.08124600    0.17796700
 C                 -2.97151600    1.05749700    0.00957800
 H                 -5.10932800   -1.60441300   -0.10983300
 H                 -6.76681100    0.23928900    0.21620700
 H                 -5.98232000    2.58590200    0.38146600
 H                 -3.55582100    3.10597700    0.25884300
 C                 -1.53503600    1.34992900   -0.03339900
 C                 -0.58835100    0.37637000    0.15746900
 S                 -2.24633900   -1.53776000   -0.43836900
 O                 -1.84841200   -1.46317100   -1.83131500
 O                 -2.70941400   -2.78133300    0.15425300
 N                 -0.95252600   -0.96909300    0.48505100
 C                 -1.03743300   -1.25340000    1.92870800
 H                 -0.07216300   -0.99608100    2.37536500
 H                 -1.82371100   -0.65897700    2.41701300
 H                 -1.22983400   -2.31712000    2.07922000
 O                 -1.23177000    2.61409000   -0.29158600
 H                 -0.24070600    2.68697500   -0.27406700
 C                  0.82960200    0.69068800    0.01008600
 O                  1.23199000    1.85530700   -0.13587100
 N                  1.67296700   -0.38209800    0.04663600
 H                  1.24767700   -1.30514500    0.06801900
 C                  3.05209800   -0.33070100   -0.06386000
 N                  3.70922900   -1.47081600   -0.03433300
 C                  5.14259700    0.22353900   -0.24726300
 C                  3.91172500    0.79401500   -0.19440700
 C                  6.52756500    0.75141300   -0.38076700
 H                  6.96015100    0.39885100   -1.33110200
 O                  5.03976100   -1.11465300   -0.15958900
 H                  3.63783900    1.83657200   -0.23581200
 O                  7.34643200    0.40732300    0.71296800
 H                  7.39823300   -0.55390100    0.77438200
 H                  6.48744900    1.84383200   -0.42083800

