%mem=56GB
%nprocshared=14
# 6-31+g(d,p) pop=(full,nbo) m06

I-M3

1 2
 C                 -1.49839000   -0.27505800    0.08978300
 C                 -1.00283600    1.03449700    0.00388000
 C                 -1.91188200    2.07653400   -0.20091900
 C                 -3.26683000    1.80075200   -0.34072800
 C                 -3.73477000    0.48899300   -0.28095800
 C                 -2.84670400   -0.56014000   -0.06093700
 H                 -3.96539600    2.61718600   -0.50418300
 H                 -3.18623200   -1.59137000   -0.00292200
 C                  0.43514700    1.29938500    0.09850000
 C                  1.37376200    0.31051000   -0.08819600
 C                  2.78428800    0.63574700    0.01343300
 O                  0.74632000    2.55678900    0.37942500
 H                  1.73380100    2.62843500    0.39927500
 O                  3.21016000    1.76843200    0.24329400
 H                 -1.54075100    3.09582800   -0.25747100
 O                  3.61312800   -0.39262300   -0.18420800
 H                  4.51431700   -0.04647600   -0.08751500
 H                 -4.79518300    0.28275100   -0.40008100
 O                 -0.01192200   -1.46214700    1.89268400
 O                 -0.79290800   -2.80862200   -0.10774500
 S                 -0.33540000   -1.56125800    0.48190400
 N                  0.99354600   -1.02769300   -0.39011300
 C                  1.05011900   -1.40865100   -1.80668900
 H                  0.35403300   -0.81253600   -2.41664300
 H                  2.07296900   -1.24063900   -2.15463700
 H                  0.81436900   -2.46923100   -1.90610500

