%nprocshared=6
# pop=nbo m06/6-31+g(d,p)

Isoxicam

-1 2
 C                 -3.09800700   -0.27549900   -0.14686200
 C                 -4.44579200   -0.59602600   -0.09796100
 C                 -5.37419800    0.42726100    0.07467700
 C                 -4.94476100    1.74786900    0.19027700
 C                 -3.59025000    2.05859000    0.15176300
 C                 -2.64274400    1.04434400   -0.00679900
 H                 -4.75485100   -1.63404000   -0.19368900
 H                 -6.43454600    0.19260700    0.11528300
 H                 -5.67348600    2.54415900    0.31746300
 H                 -3.24943700    3.08538300    0.24898300
 C                 -1.20822900    1.34955700   -0.01667500
 C                 -0.25703300    0.38307000    0.18443800
 S                 -1.88615800   -1.53954300   -0.46445500
 O                 -1.46278100   -1.44816800   -1.84884600
 O                 -2.35008800   -2.79288300    0.10689500
 N                 -0.61610000   -0.96911800    0.48965100
 C                 -0.72588600   -1.27092900    1.92793300
 H                  0.22760100   -1.00801400    2.39609200
 H                 -1.52829700   -0.69086900    2.40731600
 H                 -0.90901400   -2.33837600    2.06280000
 O                 -0.91095400    2.61951600   -0.25469400
 H                  0.07945900    2.69914000   -0.21389000
 C                  1.16208800    0.71320700    0.07560000
 O                  1.55312900    1.88487800   -0.04772400
 N                  2.01506900   -0.34906600    0.12245800
 H                  1.60057100   -1.27711700    0.12621400
 C                  3.39782000   -0.28398800    0.04987700
 N                  4.06289100   -1.41807700    0.10303600
 C                  5.49005100    0.28662600   -0.08722800
 C                  4.24960600    0.84527000   -0.06991200
 C                  6.85419500    0.84640000   -0.19438900
 H                  7.45606100    0.57681300    0.68025500
 H                  7.36595400    0.45779700   -1.08151800
 H                  6.80912200    1.93566400   -0.26604100
 O                  5.39405400   -1.05029300    0.01370300
 H                  3.96833500    1.88445200   -0.13709400

